p tw 35 37
1 2
2 13
3 4
4 5
5 6
6 7
7 8
8 9
9 10
10 11
11 12
12 14
13 24
14 15
15 16
16 17
17 18
18 19
19 20
20 21
20 23
21 22
22 23
22 26
23 25
24 30
25 28
26 27
27 28
28 29
30 31
30 33
31 32
32 28
33 34
34 35
35 3
